c 
c G(n,p) graph
c graph gen seed     : 8493
c number of vertices : 70
c max number of edges: 2415
c edge probability   : 0.400000
c data structure     : sparse
c
c           Graph Stats
c number of vertices  : 70
c nonisolated vertices: 70
c number of edges     : 994
c edge density        : 0.411594
c max degree          : 39
c avg degree          : 28.40
c min degree          : 21
p col 70 994
e 1 69
e 1 68
e 1 67
e 1 66
e 1 64
e 1 61
e 1 58
e 1 56
e 1 55
e 1 54
e 1 52
e 1 49
e 1 47
e 1 43
e 1 42
e 1 36
e 1 34
e 1 33
e 1 32
e 1 30
e 1 26
e 1 25
e 1 24
e 1 22
e 1 20
e 1 18
e 1 16
e 1 6
e 1 4
e 1 3
e 2 67
e 2 66
e 2 65
e 2 62
e 2 61
e 2 59
e 2 57
e 2 48
e 2 47
e 2 45
e 2 44
e 2 40
e 2 39
e 2 38
e 2 35
e 2 31
e 2 26
e 2 24
e 2 22
e 2 21
e 2 19
e 2 18
e 2 17
e 2 16
e 2 14
e 2 13
e 2 8
e 2 5
e 2 4
e 2 3
e 3 69
e 3 68
e 3 67
e 3 62
e 3 59
e 3 58
e 3 55
e 3 53
e 3 52
e 3 50
e 3 49
e 3 46
e 3 45
e 3 43
e 3 42
e 3 39
e 3 38
e 3 36
e 3 34
e 3 33
e 3 32
e 3 31
e 3 30
e 3 29
e 3 27
e 3 25
e 3 23
e 3 22
e 3 21
e 3 20
e 3 19
e 3 18
e 3 17
e 3 15
e 3 11
e 3 6
e 3 4
e 4 70
e 4 65
e 4 64
e 4 54
e 4 46
e 4 42
e 4 37
e 4 33
e 4 31
e 4 30
e 4 29
e 4 28
e 4 27
e 4 24
e 4 20
e 4 17
e 4 16
e 4 15
e 4 14
e 4 10
e 4 9
e 4 8
e 4 6
e 5 70
e 5 68
e 5 60
e 5 59
e 5 54
e 5 53
e 5 51
e 5 47
e 5 45
e 5 44
e 5 41
e 5 32
e 5 31
e 5 27
e 5 26
e 5 23
e 5 22
e 5 20
e 5 19
e 5 18
e 5 17
e 5 15
e 5 11
e 5 10
e 5 7
e 5 6
e 6 70
e 6 69
e 6 67
e 6 65
e 6 59
e 6 53
e 6 51
e 6 50
e 6 47
e 6 45
e 6 42
e 6 40
e 6 39
e 6 37
e 6 35
e 6 31
e 6 30
e 6 28
e 6 23
e 6 21
e 6 20
e 6 16
e 6 15
e 6 14
e 6 13
e 7 69
e 7 65
e 7 57
e 7 55
e 7 52
e 7 50
e 7 49
e 7 46
e 7 44
e 7 43
e 7 42
e 7 39
e 7 38
e 7 35
e 7 34
e 7 31
e 7 30
e 7 26
e 7 24
e 7 23
e 7 22
e 7 20
e 7 12
e 7 8
e 8 70
e 8 67
e 8 66
e 8 65
e 8 64
e 8 63
e 8 62
e 8 60
e 8 54
e 8 53
e 8 50
e 8 49
e 8 45
e 8 44
e 8 39
e 8 38
e 8 34
e 8 33
e 8 28
e 8 26
e 8 25
e 8 24
e 8 15
e 8 13
e 8 12
e 9 70
e 9 69
e 9 65
e 9 63
e 9 62
e 9 60
e 9 58
e 9 57
e 9 55
e 9 54
e 9 48
e 9 47
e 9 44
e 9 39
e 9 37
e 9 35
e 9 30
e 9 25
e 9 23
e 9 21
e 9 18
e 9 17
e 9 15
e 9 12
e 10 69
e 10 65
e 10 64
e 10 61
e 10 60
e 10 59
e 10 55
e 10 54
e 10 47
e 10 44
e 10 38
e 10 37
e 10 33
e 10 32
e 10 31
e 10 29
e 10 27
e 10 26
e 10 25
e 10 24
e 10 21
e 10 20
e 10 17
e 11 70
e 11 69
e 11 68
e 11 66
e 11 64
e 11 63
e 11 57
e 11 55
e 11 54
e 11 51
e 11 48
e 11 47
e 11 45
e 11 41
e 11 40
e 11 38
e 11 37
e 11 36
e 11 30
e 11 28
e 11 24
e 11 22
e 11 16
e 11 13
e 12 69
e 12 68
e 12 66
e 12 65
e 12 63
e 12 62
e 12 61
e 12 60
e 12 59
e 12 53
e 12 50
e 12 49
e 12 47
e 12 46
e 12 44
e 12 39
e 12 38
e 12 34
e 12 32
e 12 30
e 12 29
e 12 26
e 12 20
e 12 18
e 12 17
e 12 15
e 12 14
e 13 70
e 13 68
e 13 66
e 13 61
e 13 54
e 13 49
e 13 44
e 13 43
e 13 36
e 13 35
e 13 32
e 13 31
e 13 30
e 13 29
e 13 27
e 13 26
e 13 25
e 13 24
e 13 20
e 13 19
e 13 17
e 14 70
e 14 65
e 14 64
e 14 53
e 14 52
e 14 47
e 14 46
e 14 44
e 14 42
e 14 38
e 14 34
e 14 32
e 14 30
e 14 29
e 14 28
e 14 23
e 14 22
e 14 18
e 14 17
e 15 68
e 15 67
e 15 66
e 15 62
e 15 60
e 15 57
e 15 54
e 15 50
e 15 49
e 15 48
e 15 47
e 15 46
e 15 40
e 15 39
e 15 35
e 15 31
e 15 28
e 15 27
e 15 24
e 15 22
e 15 21
e 15 18
e 16 70
e 16 68
e 16 65
e 16 64
e 16 61
e 16 56
e 16 54
e 16 48
e 16 45
e 16 44
e 16 43
e 16 42
e 16 41
e 16 40
e 16 38
e 16 36
e 16 35
e 16 33
e 16 32
e 16 28
e 16 27
e 16 24
e 16 20
e 16 18
e 16 17
e 17 67
e 17 65
e 17 64
e 17 61
e 17 59
e 17 55
e 17 54
e 17 53
e 17 48
e 17 46
e 17 44
e 17 43
e 17 42
e 17 40
e 17 36
e 17 35
e 17 33
e 17 32
e 17 30
e 17 23
e 17 21
e 17 20
e 17 19
e 18 70
e 18 69
e 18 68
e 18 66
e 18 64
e 18 62
e 18 60
e 18 57
e 18 56
e 18 52
e 18 50
e 18 46
e 18 42
e 18 40
e 18 37
e 18 36
e 18 33
e 18 31
e 18 28
e 18 26
e 18 25
e 18 23
e 18 22
e 18 21
e 18 20
e 19 65
e 19 64
e 19 61
e 19 58
e 19 57
e 19 53
e 19 49
e 19 48
e 19 45
e 19 41
e 19 40
e 19 38
e 19 32
e 19 30
e 19 28
e 19 27
e 19 20
e 20 70
e 20 66
e 20 64
e 20 63
e 20 62
e 20 61
e 20 54
e 20 51
e 20 50
e 20 49
e 20 48
e 20 47
e 20 46
e 20 43
e 20 41
e 20 40
e 20 39
e 20 38
e 20 36
e 20 32
e 20 30
e 20 27
e 20 23
e 20 22
e 21 70
e 21 69
e 21 65
e 21 64
e 21 59
e 21 55
e 21 54
e 21 50
e 21 45
e 21 44
e 21 42
e 21 41
e 21 39
e 21 37
e 21 35
e 21 34
e 21 32
e 21 30
e 21 28
e 21 23
e 21 22
e 22 68
e 22 67
e 22 66
e 22 64
e 22 63
e 22 62
e 22 60
e 22 59
e 22 57
e 22 53
e 22 43
e 22 40
e 22 39
e 22 35
e 22 27
e 22 26
e 22 25
e 22 24
e 23 68
e 23 59
e 23 57
e 23 54
e 23 50
e 23 49
e 23 47
e 23 46
e 23 45
e 23 43
e 23 42
e 23 41
e 23 38
e 23 37
e 23 29
e 23 28
e 24 64
e 24 62
e 24 60
e 24 59
e 24 56
e 24 53
e 24 52
e 24 49
e 24 47
e 24 45
e 24 44
e 24 41
e 24 38
e 24 34
e 24 32
e 24 31
e 24 29
e 24 25
e 25 70
e 25 68
e 25 67
e 25 64
e 25 62
e 25 60
e 25 56
e 25 52
e 25 51
e 25 49
e 25 48
e 25 47
e 25 46
e 25 39
e 25 36
e 25 33
e 25 32
e 25 31
e 25 29
e 25 28
e 25 27
e 26 70
e 26 69
e 26 66
e 26 58
e 26 57
e 26 54
e 26 52
e 26 50
e 26 49
e 26 47
e 26 46
e 26 45
e 26 43
e 26 41
e 26 39
e 26 37
e 26 36
e 26 34
e 26 33
e 26 32
e 26 27
e 27 68
e 27 65
e 27 63
e 27 57
e 27 56
e 27 54
e 27 44
e 27 40
e 27 36
e 27 32
e 27 31
e 27 30
e 28 70
e 28 69
e 28 65
e 28 64
e 28 59
e 28 57
e 28 45
e 28 41
e 28 39
e 28 36
e 28 35
e 29 69
e 29 67
e 29 64
e 29 58
e 29 57
e 29 53
e 29 49
e 29 45
e 29 43
e 29 42
e 29 37
e 29 35
e 29 33
e 29 31
e 29 30
e 30 68
e 30 67
e 30 63
e 30 62
e 30 59
e 30 57
e 30 56
e 30 53
e 30 50
e 30 49
e 30 47
e 30 46
e 30 43
e 30 41
e 30 40
e 30 34
e 30 33
e 30 31
e 31 70
e 31 68
e 31 62
e 31 61
e 31 60
e 31 59
e 31 57
e 31 56
e 31 55
e 31 53
e 31 52
e 31 51
e 31 50
e 31 49
e 31 48
e 31 46
e 31 45
e 31 42
e 31 39
e 31 38
e 31 37
e 31 36
e 31 35
e 32 68
e 32 67
e 32 65
e 32 64
e 32 63
e 32 61
e 32 58
e 32 56
e 32 54
e 32 53
e 32 48
e 32 47
e 32 46
e 32 43
e 32 42
e 32 40
e 32 39
e 32 36
e 32 33
e 33 65
e 33 63
e 33 62
e 33 61
e 33 60
e 33 58
e 33 57
e 33 56
e 33 53
e 33 50
e 33 46
e 33 45
e 33 44
e 33 42
e 33 37
e 33 36
e 33 34
e 34 69
e 34 67
e 34 66
e 34 65
e 34 64
e 34 63
e 34 60
e 34 58
e 34 51
e 34 48
e 34 42
e 34 40
e 35 70
e 35 67
e 35 66
e 35 62
e 35 57
e 35 56
e 35 50
e 35 49
e 35 47
e 35 44
e 35 42
e 35 37
e 36 70
e 36 68
e 36 66
e 36 60
e 36 59
e 36 56
e 36 54
e 36 53
e 36 52
e 36 51
e 36 50
e 36 47
e 36 45
e 36 40
e 36 38
e 37 66
e 37 65
e 37 64
e 37 63
e 37 59
e 37 57
e 37 56
e 37 52
e 37 50
e 37 48
e 37 43
e 37 42
e 37 41
e 37 40
e 38 69
e 38 66
e 38 62
e 38 60
e 38 56
e 38 54
e 38 52
e 38 50
e 38 49
e 38 46
e 38 45
e 38 42
e 38 40
e 39 69
e 39 65
e 39 64
e 39 63
e 39 62
e 39 61
e 39 60
e 39 56
e 39 55
e 39 50
e 39 49
e 39 48
e 39 47
e 39 46
e 39 43
e 39 42
e 40 69
e 40 65
e 40 59
e 40 58
e 40 56
e 40 55
e 40 54
e 40 50
e 40 48
e 40 45
e 40 42
e 40 41
e 41 67
e 41 64
e 41 62
e 41 59
e 41 58
e 41 56
e 41 55
e 41 45
e 42 70
e 42 66
e 42 63
e 42 62
e 42 60
e 42 58
e 42 56
e 42 52
e 42 51
e 42 50
e 42 46
e 43 69
e 43 68
e 43 63
e 43 61
e 43 60
e 43 53
e 43 51
e 43 50
e 43 49
e 43 46
e 43 44
e 44 70
e 44 68
e 44 64
e 44 62
e 44 61
e 44 60
e 44 57
e 44 56
e 44 53
e 44 51
e 44 50
e 44 49
e 44 47
e 45 70
e 45 69
e 45 68
e 45 62
e 45 59
e 45 58
e 45 55
e 45 54
e 45 53
e 45 50
e 45 48
e 46 69
e 46 67
e 46 65
e 46 62
e 46 60
e 46 58
e 46 52
e 46 47
e 47 64
e 47 62
e 47 60
e 47 58
e 47 57
e 47 54
e 47 53
e 47 49
e 47 48
e 48 70
e 48 69
e 48 68
e 48 67
e 48 64
e 48 59
e 48 56
e 48 53
e 48 51
e 48 49
e 49 61
e 49 60
e 49 53
e 49 50
e 50 70
e 50 67
e 50 64
e 50 62
e 50 60
e 50 58
e 50 57
e 50 54
e 50 53
e 51 70
e 51 68
e 51 65
e 51 64
e 51 62
e 51 61
e 51 59
e 51 58
e 51 53
e 52 68
e 52 67
e 52 66
e 52 63
e 52 62
e 52 60
e 52 58
e 52 55
e 52 54
e 53 68
e 53 66
e 53 58
e 54 70
e 54 68
e 54 64
e 54 62
e 54 61
e 54 59
e 54 58
e 55 70
e 55 69
e 55 67
e 55 64
e 55 61
e 55 60
e 55 57
e 55 56
e 56 67
e 56 63
e 56 61
e 56 59
e 56 58
e 56 57
e 57 70
e 57 68
e 57 67
e 57 62
e 57 60
e 57 59
e 58 68
e 58 66
e 58 59
e 59 67
e 59 66
e 59 64
e 59 63
e 59 62
e 60 66
e 60 63
e 61 70
e 61 66
e 61 63
e 61 62
e 62 70
e 62 69
e 62 68
e 62 66
e 62 64
e 62 63
e 63 70
e 63 68
e 64 70
e 64 69
e 64 67
e 65 70
e 65 67
e 65 66
e 66 68
e 66 67
e 67 69
e 68 70
e 68 69
e 69 70
